c 5 Maven
c 50 AngularJS
c 13 Server
c 7 PostgreSQL
c 33 False
c 47 Consul
c 32 MessageBroker
c 38 SearchEngine
c 20 MySql
c 39 MySQL
c 58 Client
c 36 EhCache
c 19 AuthenticationType
c 22 ServerSideOption
c 60 LibSass
c 10 HibernateCache
c 43 JWT
c 28 HTTPSession
c 49 SwaggerCodegen
c 55 SQL
c 15 ApplicationType
c 59 Angular4
c 18 Uaa
c 16 Oracle12c
c 14 MicroserviceApplication
c 26 NoDB
c 3 MongoDB
c 51 ClientFrameWork
c 31 Cucumber
c 27 MariaDBDev
c 35 Application
c 9 NoHB
c 45 H2InMemory
c 1 Gatling
c 34 Cassandra
c 30 Oauth2
c 12 SocialLogIn
c 57 H2DiskBased
c 8 ProDataBaseType
c 44 ClusteredHttpSession
c 42 MsSQL
c 54 MsSql
c 56 Oracle
c 4 DataBaseType
c 48 jhipster
c 25 ServiceDiscoveryType
c 23 MicroserviceGateway
c 40 MariaDB
c 46 Monolithic
c 37 WebSocket
c 17 DevDataBaseType
c 52 HazelCast
c 2 TestFramework
c 6 BuildTool
c 41 UaaServer
c 21 PostgreSQLDev
c 53 Protractor
c 11 Gradle
c 29 Infinispan
c 24 Eureka
p cnf 61 666
-1 2 0
-3 4 0
-5 6 0
-7 8 0
-9 10 0
-11 6 0
-12 13 0
-14 15 0
-16 17 0
-1 2 0
-5 6 0
-18 19 0
-20 17 0
-21 17 0
-10 22 0
-23 15 0
-17 22 0
-24 25 0
-26 4 0
-27 17 0
-24 25 0
-17 22 0
-28 19 0
-29 10 0
-30 19 0
-28 19 0
-18 19 0
-31 2 0
-3 4 0
-32 13 0
-33 25 0
-34 4 0
-2 35 0
-19 22 0
-36 10 0
-34 4 0
-37 13 0
-25 22 0
-38 13 0
-39 8 0
-40 8 0
-32 13 0
-41 15 0
-3 4 0
-36 10 0
-42 8 0
-36 10 0
-14 15 0
-28 19 0
-20 17 0
-34 4 0
-28 19 0
-43 19 0
-43 19 0
-25 22 0
-1 2 0
-31 2 0
-8 22 0
-44 13 0
-7 8 0
-40 8 0
-5 6 0
-24 25 0
-3 4 0
-42 8 0
-45 17 0
-33 25 0
-30 19 0
-46 15 0
-47 25 0
-30 19 0
-19 22 0
-11 6 0
-14 15 0
-47 25 0
-25 22 0
-41 15 0
-30 19 0
-35 48 0
-21 17 0
-43 19 0
-29 10 0
-4 22 0
-43 19 0
-28 19 0
-47 25 0
-25 22 0
-28 19 0
-49 13 0
-5 6 0
-28 19 0
-34 4 0
-17 22 0
-16 17 0
-26 4 0
-21 17 0
-50 51 0
-52 10 0
-4 22 0
-15 35 0
-43 19 0
-31 2 0
-27 17 0
-30 19 0
-41 15 0
-43 19 0
-4 22 0
-53 2 0
-40 8 0
-10 22 0
-16 17 0
-44 13 0
-3 4 0
-20 17 0
-12 13 0
-34 4 0
-30 19 0
-1 2 0
-54 17 0
-10 22 0
-33 25 0
-54 17 0
-41 15 0
-28 19 0
-11 6 0
-4 22 0
-28 19 0
-2 35 0
-16 17 0
-20 17 0
-8 22 0
-27 17 0
-46 15 0
-45 17 0
-24 25 0
-1 2 0
-24 25 0
-55 4 0
-42 8 0
-36 10 0
-40 8 0
-55 4 0
-47 25 0
-41 15 0
-11 6 0
-39 8 0
-55 4 0
-38 13 0
-6 22 0
-3 4 0
-27 17 0
-18 19 0
-46 15 0
-40 8 0
-43 19 0
-5 6 0
-34 4 0
-43 19 0
-8 22 0
-10 22 0
-47 25 0
-23 15 0
-32 13 0
-52 10 0
-9 10 0
-28 19 0
-27 17 0
-46 15 0
-26 4 0
-11 6 0
-22 13 0
-42 8 0
-25 22 0
-54 17 0
-9 10 0
-49 13 0
-18 19 0
-43 19 0
-1 2 0
-39 8 0
-10 22 0
-37 13 0
-55 4 0
-22 13 0
-16 17 0
-21 17 0
-41 15 0
-41 15 0
-19 22 0
-9 10 0
-30 19 0
-11 6 0
-30 19 0
-18 19 0
-53 2 0
-45 17 0
-9 10 0
-53 2 0
-47 25 0
-25 22 0
-34 4 0
-3 4 0
-11 6 0
-54 17 0
-47 25 0
-46 15 0
-56 8 0
-53 2 0
-42 8 0
-6 22 0
-50 51 0
-55 4 0
-34 4 0
-55 4 0
-4 22 0
-24 25 0
-14 15 0
-29 10 0
-24 25 0
-29 10 0
-9 10 0
-55 4 0
-57 17 0
-28 19 0
-47 25 0
-33 25 0
-18 19 0
-4 22 0
-58 48 0
-26 4 0
-52 10 0
-24 25 0
-5 6 0
-30 19 0
-8 22 0
-30 19 0
-33 25 0
-15 35 0
-36 10 0
-22 13 0
-26 4 0
-26 4 0
-29 10 0
-34 4 0
-31 2 0
-9 10 0
-18 19 0
-33 25 0
-11 6 0
-18 19 0
-58 48 0
-8 22 0
-29 10 0
-10 22 0
-43 19 0
-11 6 0
-43 19 0
-17 22 0
-36 10 0
-33 25 0
-23 15 0
-19 22 0
-52 10 0
-53 2 0
-7 8 0
-23 15 0
-46 15 0
-36 10 0
-51 58 0
-3 4 0
-47 25 0
-14 15 0
-56 8 0
-37 13 0
-39 8 0
-33 25 0
-3 4 0
-26 4 0
-11 6 0
-55 4 0
-33 25 0
-52 10 0
-42 8 0
-36 10 0
-55 4 0
-40 8 0
-5 6 0
-14 15 0
-52 10 0
-20 17 0
-26 4 0
-39 8 0
-1 2 0
-52 10 0
-55 4 0
-20 17 0
-27 17 0
-55 4 0
-50 51 0
-9 10 0
-29 10 0
-27 17 0
-49 13 0
-17 22 0
-6 22 0
-52 10 0
-19 22 0
-6 22 0
-43 19 0
-28 19 0
-9 10 0
-29 10 0
-29 10 0
-52 10 0
-53 2 0
-52 10 0
-7 8 0
-12 13 0
-33 25 0
-11 6 0
-36 10 0
-56 8 0
-10 22 0
-11 6 0
-5 6 0
-17 22 0
-7 8 0
-47 25 0
-7 8 0
-5 6 0
-53 2 0
-32 13 0
-59 51 0
-28 19 0
-36 10 0
-60 58 0
-18 19 0
-36 10 0
-56 8 0
-30 19 0
-39 8 0
-57 17 0
-30 19 0
-47 25 0
-11 6 0
-34 4 0
-36 10 0
-10 22 0
-17 22 0
-52 10 0
-30 19 0
-26 4 0
-24 25 0
-27 17 0
-14 15 0
-45 17 0
-28 19 0
-9 10 0
-5 6 0
-5 6 0
-50 51 0
-28 19 0
-34 4 0
-19 22 0
-5 6 0
-56 8 0
-12 13 0
-18 19 0
-9 10 0
-11 6 0
-21 17 0
-26 4 0
-29 10 0
-23 15 0
-46 15 0
-5 6 0
-24 25 0
-34 4 0
-43 19 0
-9 10 0
-13 48 0
-52 10 0
-24 25 0
-34 4 0
-18 19 0
-8 22 0
-16 17 0
-43 19 0
-14 15 0
-47 25 0
-3 4 0
-57 17 0
-31 2 0
-23 15 0
-16 17 0
-20 17 0
-16 17 0
-31 2 0
-53 2 0
-18 19 0
-21 17 0
-40 8 0
-28 19 0
-52 10 0
-49 13 0
-8 22 0
-57 17 0
-56 8 0
-8 22 0
-54 17 0
-56 8 0
-19 22 0
-5 6 0
-9 10 0
-24 25 0
-3 4 0
-25 22 0
-22 13 0
-40 8 0
-54 17 0
-39 8 0
-2 35 0
-59 51 0
-21 17 0
-57 17 0
-1 2 0
-43 19 0
-47 25 0
-4 22 0
-15 35 0
-4 22 0
-18 19 0
-45 17 0
-7 8 0
-55 4 0
-7 8 0
-59 51 0
-52 10 0
-3 4 0
-26 4 0
-5 6 0
-26 4 0
-43 19 0
-60 58 0
-33 25 0
-33 25 0
-26 4 0
-55 4 0
-9 10 0
-30 19 0
-47 25 0
-24 25 0
-59 51 0
-46 15 0
-44 13 0
-23 15 0
-20 17 0
-37 13 0
-29 10 0
-56 8 0
-34 4 0
-18 19 0
-26 4 0
-3 4 0
-57 17 0
-3 4 0
-30 19 0
-24 25 0
-30 19 0
-5 6 0
-24 25 0
-36 10 0
-51 58 0
-38 13 0
-55 4 0
-18 19 0
-36 10 0
-31 2 0
-29 10 0
-52 10 0
-36 10 0
-57 17 0
-34 4 0
-36 10 0
-6 22 0
-24 25 0
-6 22 0
-42 8 0
-15 35 0
-9 10 0
-25 22 0
-3 4 0
-11 6 0
-33 25 0
-2 35 0
-42 8 0
-13 48 0
-44 13 0
-47 25 0
-38 13 0
-6 22 0
-11 6 0
-9 10 0
-55 4 0
-23 15 0
-17 22 0
-21 17 0
-29 10 0
-41 15 0
-33 25 0
-35 48 0
-18 19 0
-54 17 0
-54 17 0
-45 17 0
-57 17 0
-45 17 0
-33 25 0
-33 25 0
-3 4 0
-29 10 0
-45 17 0
-29 10 0
-39 8 0
-6 22 0
-31 2 0
-26 4 0
-47 25 0
-52 10 0
-26 4 0
-19 22 0
-34 4 0
-55 4 0
-29 10 0
48 0
-58 51 0
-19 28 18 30 43 0
-18 -30 0
-18 -43 0
-28 -18 0
-28 -30 0
-30 -43 0
-28 -43 0
-17 16 45 21 27 54 20 57 0
-27 -54 0
-21 -27 0
-54 -20 0
-45 -27 0
-27 -57 0
-20 -57 0
-45 -54 0
-21 -20 0
-16 -20 0
-16 -57 0
-45 -21 0
-21 -54 0
-45 -20 0
-16 -54 0
-45 -57 0
-16 -27 0
-27 -20 0
-16 -21 0
-21 -57 0
-16 -45 0
-54 -57 0
-35 2 0
-22 4 0
-22 6 0
-22 19 0
-6 11 5 0
-11 -5 0
-4 55 26 34 3 0
-55 -34 0
-55 -3 0
-26 -3 0
-55 -26 0
-34 -3 0
-26 -34 0
-25 47 24 33 0
-24 -33 0
-47 -24 0
-47 -33 0
-13 22 0
-35 15 0
-22 25 0
-48 35 0
-10 29 9 52 36 0
-9 -52 0
-52 -36 0
-29 -36 0
-29 -52 0
-29 -9 0
-9 -36 0
-51 50 59 0
-50 -59 0
-8 39 42 56 40 7 0
-56 -40 0
-39 -42 0
-56 -7 0
-42 -56 0
-39 -7 0
-39 -56 0
-42 -7 0
-39 -40 0
-40 -7 0
-42 -40 0
-15 23 46 14 41 0
-46 -14 0
-23 -46 0
-23 -41 0
-23 -14 0
-14 -41 0
-46 -41 0
61 48 0
-22 10 0
-48 13 0
-56 0
-55 -56 57 45 16 0
-46 -18 0
-55 -39 57 45 20 0
-3 23 9 0
-34 23 9 0
-26 9 0
-16 0
-41 18 0
14 18 -26 0
14 23 -26 0
-46 33 24 0
55 -38 0
-55 -42 57 45 54 0
-55 -40 57 45 27 0
-23 52 0
-55 8 0
-30 55 3 0
-14 -58 0
-14 31 0
-14 1 0
-14 -53 0
-41 -58 0
-41 31 0
-41 1 0
-41 -53 0
-55 -7 57 45 21 0
-34 -12 0
46 -12 0
28 43 -12 0
-23 43 18 0
-14 43 18 0
-3 -17 0
-3 -8 0
-34 -17 0
-34 -8 0
-26 -17 0
-26 -8 0
46 23 -44 0
9 52 -44 0
-24 18 43 0
-46 58 0
-46 31 0
-46 53 0
-46 1 0
-23 58 0
-23 31 0
-23 53 0
-23 1 0
46 23 -37 0
